c "810958.clq"
p edge 100 384
e 1 5
e 1 6
e 1 9
e 1 23
e 1 24
e 1 26
e 1 78
e 2 5
e 2 6
e 2 9
e 2 10
e 2 11
e 2 15
e 2 16
e 2 17
e 2 29
e 2 33
e 2 45
e 2 51
e 2 61
e 2 63
e 2 64
e 2 70
e 2 73
e 2 88
e 2 92
e 2 99
e 3 5
e 3 7
e 3 8
e 3 11
e 3 12
e 3 14
e 3 39
e 3 50
e 3 58
e 3 90
e 4 5
e 4 6
e 4 7
e 4 9
e 4 10
e 4 12
e 4 13
e 4 14
e 4 16
e 4 17
e 4 18
e 4 20
e 4 22
e 4 24
e 4 25
e 4 27
e 4 28
e 4 29
e 4 30
e 4 31
e 4 39
e 4 40
e 4 42
e 4 43
e 4 45
e 4 50
e 4 57
e 4 61
e 4 64
e 4 65
e 4 68
e 4 73
e 4 82
e 4 85
e 4 91
e 4 93
e 4 96
e 4 99
e 5 6
e 5 7
e 5 8
e 5 11
e 5 13
e 5 27
e 5 44
e 6 7
e 6 8
e 6 9
e 6 10
e 6 11
e 6 12
e 6 13
e 6 14
e 6 16
e 6 22
e 6 31
e 6 33
e 6 36
e 6 39
e 6 41
e 6 43
e 6 54
e 6 56
e 6 57
e 6 58
e 6 62
e 6 64
e 6 67
e 6 69
e 6 72
e 6 75
e 6 76
e 6 79
e 6 80
e 6 89
e 6 99
e 7 8
e 7 15
e 7 17
e 7 19
e 7 21
e 7 26
e 7 30
e 7 38
e 7 42
e 7 44
e 7 51
e 7 59
e 7 60
e 7 62
e 7 76
e 7 79
e 7 91
e 7 95
e 8 18
e 8 20
e 8 21
e 8 23
e 8 65
e 8 73
e 8 79
e 8 84
e 8 86
e 8 98
e 8 99
e 9 10
e 9 16
e 9 20
e 9 21
e 9 22
e 9 23
e 9 24
e 9 29
e 9 33
e 9 42
e 9 49
e 9 68
e 9 93
e 10 12
e 10 14
e 10 15
e 10 17
e 10 18
e 10 28
e 10 36
e 10 48
e 10 49
e 10 72
e 10 76
e 10 87
e 11 19
e 11 32
e 11 54
e 11 63
e 11 68
e 11 79
e 12 13
e 12 27
e 12 32
e 12 40
e 12 52
e 12 63
e 12 71
e 12 75
e 12 88
e 12 98
e 13 15
e 13 20
e 13 26
e 13 31
e 13 35
e 13 42
e 13 73
e 14 34
e 14 36
e 14 53
e 14 74
e 14 90
e 14 91
e 14 100
e 15 21
e 15 22
e 15 27
e 15 32
e 15 41
e 15 44
e 15 52
e 15 59
e 15 60
e 15 66
e 15 78
e 15 94
e 16 30
e 16 32
e 16 34
e 16 35
e 16 47
e 16 56
e 16 67
e 16 85
e 17 18
e 17 19
e 17 25
e 17 28
e 17 31
e 17 37
e 17 40
e 17 43
e 17 50
e 17 51
e 17 53
e 17 54
e 17 57
e 17 58
e 17 61
e 17 77
e 17 81
e 17 87
e 17 98
e 18 19
e 18 23
e 18 30
e 18 46
e 18 60
e 18 62
e 18 77
e 18 84
e 18 85
e 18 86
e 18 89
e 19 25
e 19 36
e 19 38
e 19 49
e 19 55
e 19 58
e 19 76
e 20 25
e 20 47
e 20 48
e 20 83
e 21 46
e 21 66
e 22 34
e 22 56
e 23 24
e 23 26
e 23 28
e 23 33
e 23 41
e 23 48
e 23 50
e 23 59
e 23 61
e 23 62
e 23 65
e 23 68
e 23 83
e 24 29
e 24 48
e 24 96
e 25 54
e 26 37
e 26 46
e 26 66
e 27 35
e 28 37
e 28 38
e 28 66
e 28 70
e 28 97
e 29 39
e 29 47
e 29 53
e 29 74
e 30 34
e 30 35
e 30 41
e 30 78
e 31 93
e 32 47
e 33 44
e 33 53
e 33 74
e 34 43
e 34 89
e 35 38
e 35 72
e 35 81
e 36 37
e 36 45
e 36 95
e 36 97
e 39 40
e 40 45
e 40 55
e 40 67
e 40 82
e 41 46
e 41 49
e 41 57
e 41 69
e 41 83
e 42 60
e 42 96
e 43 52
e 43 63
e 43 86
e 44 51
e 47 52
e 47 55
e 47 67
e 47 74
e 47 75
e 47 84
e 47 92
e 48 55
e 48 64
e 48 88
e 49 71
e 51 56
e 51 70
e 52 65
e 52 80
e 53 90
e 54 69
e 54 80
e 54 94
e 55 77
e 55 92
e 55 95
e 56 59
e 56 69
e 58 72
e 58 87
e 62 77
e 62 80
e 62 94
e 64 70
e 65 75
e 66 71
e 66 78
e 66 87
e 66 90
e 69 89
e 69 91
e 70 71
e 71 81
e 72 82
e 74 95
e 75 92
e 76 81
e 76 88
e 77 82
e 80 86
e 81 85
e 82 83
e 82 97
e 83 84
e 83 96
e 86 94
e 90 100
e 92 93
e 95 100
e 96 97
e 96 98
e 96 100
